p cnf 10 40
 -5 3 -6 0
 6 3 -2 0
 -5 -6 -8 0
 10 3 7 0
 2 -3 -4 0
 -7 -6 -9 0
 -7 -1 4 0
 -5 6 7 0
 10 1 8 0
 -8 -2 -5 0
 5 2 3 0
 -10 8 7 0
 -4 1 10 0
 10 3 -9 0
 8 7 -1 0
 -6 -8 4 0
 1 7 5 0
 -2 1 -5 0
 9 2 -7 0
 -3 -9 6 0
 6 1 3 0
 -10 2 -9 0
 -2 5 1 0
 -8 10 -9 0
 -5 -6 7 0
 3 5 8 0
 9 -8 3 0
 -3 2 -8 0
 8 -7 5 0
 6 -1 -5 0
 3 -5 7 0
 -10 4 8 0
 -2 -8 -7 0
 10 -5 -7 0
 -6 2 1 0
 4 3 -9 0
 -9 -4 3 0
 -5 -2 3 0
 -6 3 4 0
 1 -4 10 0
c 1 a_1
c 2 a_2
c 3 a_3
c 4 a_4
c 5 a_5
c 6 a_6
c 7 a_7
c 8 a_8
c 9 a_9
c 10 a_10
